2 1
3 1
3 2
4 1
4 2
4 3
5 1
5 2
5 3
5 4
6 1
6 2
6 3
6 4
6 5
7 1
7 2
7 3
7 4
7 5
7 6
8 1
8 2
8 3
8 4
8 5
8 6
8 7
9 1
9 2
9 3
9 4
9 5
9 6
9 7
9 8
10 1
10 2
10 3
10 4
10 5
10 6
10 7
10 8
10 9
11 1
11 2
11 3
11 4
11 5
11 6
11 7
11 8
11 9
11 10
12 1
12 2
12 3
12 4
12 5
12 6
12 7
12 8
12 9
12 10
12 11
13 1
13 2
13 3
13 4
13 5
13 6
13 7
13 8
13 9
13 10
13 11
13 12
14 1
14 2
14 3
14 4
14 5
14 6
14 7
14 8
14 9
14 10
14 11
14 12
14 13
15 1
15 2
15 3
15 4
15 5
15 6
15 7
15 8
15 9
15 10
15 11
15 12
15 13
15 14
16 1
16 2
16 3
16 4
16 5
16 6
16 7
16 8
16 9
16 10
16 11
16 12
16 13
16 14
16 15
18 17
19 17
19 18
20 17
20 18
20 19
21 17
21 18
21 19
21 20
22 17
22 18
22 19
22 20
22 21
23 17
23 18
23 19
23 20
23 21
23 22
24 17
24 18
24 19
24 20
24 21
24 22
24 23
25 17
25 18
25 19
25 20
25 21
25 22
25 23
25 24
26 17
26 18
26 19
26 20
26 21
26 22
26 23
26 24
26 25
27 17
27 18
27 19
27 20
27 21
27 22
27 23
27 24
27 25
27 26
28 17
28 18
28 19
28 20
28 21
28 22
28 23
28 24
28 25
28 26
28 27
29 17
29 18
29 19
29 20
29 21
29 22
29 23
29 24
29 25
29 26
29 27
29 28
30 17
30 18
30 19
30 20
30 21
30 22
30 23
30 24
30 25
30 26
30 27
30 28
30 29
31 17
31 18
31 19
31 20
31 21
31 22
31 23
31 24
31 25
31 26
31 27
31 28
31 29
31 30
32 17
32 18
32 19
32 20
32 21
32 22
32 23
32 24
32 25
32 26
32 27
32 28
32 29
32 30
32 31
33 1
33 2
33 3
33 4
33 5
33 6
33 7
33 8
33 9
33 10
33 11
33 12
33 13
33 14
33 15
33 16
33 17
34 1
34 2
34 17
34 18
34 19
34 20
34 21
34 22
34 23
34 24
34 25
34 26
34 27
34 28
34 29
34 30
34 31
34 32
35 1
35 2
35 17
35 18
35 19
35 20
35 21
35 22
35 23
35 24
35 25
35 26
35 27
35 28
35 29
35 30
35 31
35 32
36 1
36 2
36 17
36 18
36 19
36 20
36 21
36 22
36 23
36 24
36 25
36 26
36 27
36 28
36 29
36 30
36 31
36 32
37 1
37 2
37 17
37 18
37 19
37 20
37 21
37 22
37 23
37 24
37 25
37 26
37 27
37 28
37 29
37 30
37 31
37 32
38 1
38 2
38 3
38 5
38 6
38 7
38 8
38 9
38 10
38 11
38 12
38 13
38 14
38 16
38 17
38 18
38 19
38 20
38 21
38 22
38 23
38 24
38 25
38 26
38 27
38 28
38 29
38 30
38 31
38 32
39 1
39 2
39 3
39 6
39 7
39 8
39 9
39 10
39 11
39 12
39 13
39 14
39 16
39 17
39 18
39 19
39 20
39 21
39 22
39 23
39 24
39 25
39 26
39 27
39 28
39 29
39 30
39 31
39 32
40 1
40 2
40 3
40 7
40 8
40 9
40 10
40 11
40 12
40 13
40 14
40 16
40 17
40 18
40 19
40 20
40 21
40 22
40 23
40 24
40 25
40 26
40 27
40 28
40 29
40 30
40 31
40 32
41 1
41 2
41 3
41 8
41 9
41 10
41 11
41 12
41 13
41 14
41 16
41 17
41 18
41 19
41 20
41 21
41 22
41 23
41 24
41 25
41 26
41 27
41 28
41 29
41 30
41 31
41 32
42 1
42 2
42 3
42 9
42 10
42 11
42 12
42 13
42 14
42 16
42 17
42 18
42 19
42 20
42 21
42 22
42 23
42 24
42 25
42 26
42 27
42 28
42 29
42 30
42 31
42 32
43 1
43 2
43 3
43 10
43 11
43 12
43 13
43 14
43 16
43 17
43 18
43 19
43 20
43 21
43 22
43 23
43 24
43 25
43 26
43 27
43 28
43 29
43 30
43 31
43 32
44 1
44 2
44 3
44 11
44 12
44 13
44 14
44 16
44 17
44 18
44 19
44 20
44 21
44 22
44 23
44 24
44 25
44 26
44 27
44 28
44 29
44 30
44 31
44 32
45 1
45 2
45 3
45 11
45 12
45 13
45 14
45 17
45 18
45 19
45 20
45 21
45 22
45 23
45 24
45 25
45 26
45 27
45 28
45 29
45 30
45 31
45 32
46 1
46 2
46 3
46 4
46 5
46 6
46 7
46 8
46 9
46 10
46 11
46 12
46 13
46 14
46 15
46 16
46 17
46 19
46 20
46 21
46 22
46 23
46 24
46 25
46 26
47 1
47 2
47 3
47 4
47 5
47 6
47 7
47 8
47 9
47 10
47 11
47 12
47 13
47 14
47 15
47 16
47 17
47 20
47 21
47 22
47 23
47 24
47 25
47 26
48 1
48 2
48 3
48 4
48 5
48 6
48 7
48 8
48 9
48 10
48 11
48 12
48 13
48 14
48 15
48 16
48 17
48 21
48 22
48 23
48 24
48 25
48 26
49 1
49 2
49 3
49 4
49 5
49 6
49 7
49 8
49 9
49 10
49 11
49 12
49 13
49 14
49 15
49 16
49 17
49 22
49 23
49 24
49 25
49 26
49 33
50 1
50 2
50 3
50 4
50 5
50 6
50 7
50 8
50 9
50 10
50 11
50 12
50 13
50 14
50 15
50 16
50 17
50 23
50 24
50 25
50 26
50 33
50 49
51 1
51 2
51 3
51 4
51 5
51 6
51 7
51 8
51 9
51 10
51 11
51 12
51 13
51 14
51 15
51 16
51 17
51 24
51 25
51 26
51 33
51 49
51 50
52 1
52 2
52 3
52 4
52 5
52 6
52 7
52 8
52 9
52 10
52 11
52 12
52 13
52 14
52 15
52 16
52 17
52 25
52 26
52 33
52 49
52 50
52 51
53 1
53 2
53 3
53 4
53 5
53 6
53 7
53 8
53 9
53 10
53 11
53 12
53 13
53 14
53 15
53 16
53 17
53 26
53 33
53 49
53 50
53 51
53 52
54 1
54 2
54 3
54 4
54 5
54 6
54 7
54 8
54 9
54 10
54 11
54 12
54 13
54 14
54 15
54 16
54 17
54 33
54 49
54 50
54 51
54 52
54 53
55 1
55 2
55 3
55 12
55 13
55 14
55 17
55 18
55 19
55 20
55 21
55 22
55 23
55 24
55 25
55 26
55 27
55 28
55 29
55 30
55 31
55 32
56 1
56 2
56 3
56 12
56 13
56 14
56 17
56 18
56 19
56 20
56 21
56 22
56 23
56 24
56 25
56 26
56 27
56 28
56 29
56 30
56 31
56 32
57 1
57 2
57 3
57 13
57 14
57 17
57 18
57 19
57 20
57 21
57 22
57 23
57 24
57 25
57 26
57 27
57 28
57 29
57 30
57 31
57 32
58 1
58 2
58 3
58 13
58 14
58 17
58 18
58 19
58 20
58 21
58 22
58 23
58 24
58 25
58 26
58 27
58 28
58 29
58 30
58 31
58 32
59 1
59 2
59 3
59 14
59 17
59 18
59 19
59 20
59 21
59 22
59 23
59 24
59 25
59 26
59 27
59 28
59 29
59 30
59 31
59 32
60 1
60 2
60 3
60 17
60 18
60 19
60 20
60 21
60 22
60 23
60 24
60 25
60 26
60 27
60 28
60 29
60 30
60 31
60 32
60 34
60 35
60 36
61 1
61 2
61 3
61 4
61 5
61 6
61 7
61 8
61 9
61 10
61 11
61 12
61 13
61 14
61 15
61 16
61 17
61 33
61 49
61 50
61 51
61 52
61 53
61 54
62 1
62 2
62 17
62 18
62 19
62 20
62 21
62 22
62 23
62 24
62 25
62 26
62 27
62 28
62 29
62 30
62 31
62 32
62 60
63 1
63 2
63 3
63 4
63 5
63 6
63 7
63 8
63 9
63 10
63 11
63 12
63 13
63 14
63 15
63 16
63 17
63 33
63 49
63 50
63 51
63 52
63 53
63 54
63 61
64 1
64 2
64 3
64 4
64 5
64 6
64 7
64 8
64 9
64 10
64 11
64 12
64 13
64 14
64 15
64 16
64 17
64 49
64 50
64 51
64 52
64 53
64 54
64 61
64 63
65 1
65 2
65 3
65 4
65 5
65 6
65 7
65 8
65 9
65 10
65 11
65 12
65 13
65 14
65 15
65 16
65 17
65 33
65 49
65 50
65 51
65 52
65 53
65 54
65 61
65 63
66 1
66 2
66 3
66 4
66 5
66 6
66 7
66 8
66 9
66 10
66 11
66 12
66 13
66 14
66 15
66 16
66 17
66 33
66 49
66 50
66 51
66 52
66 53
66 54
66 61
66 63
66 65
67 1
67 2
67 3
67 4
67 5
67 6
67 7
67 8
67 9
67 10
67 11
67 12
67 13
67 14
67 15
67 16
67 17
67 33
67 49
67 50
67 51
67 52
67 53
67 54
67 61
67 63
67 65
67 66
68 1
68 2
68 17
68 18
68 19
68 20
68 21
68 22
68 23
68 24
68 25
68 26
68 27
68 28
68 29
68 30
68 31
68 32
68 60
69 1
69 2
69 17
69 18
69 19
69 20
69 21
69 22
69 23
69 24
69 25
69 26
69 27
69 28
69 29
69 30
69 31
69 32
69 60
70 1
70 2
70 3
70 4
70 5
70 6
70 7
70 8
70 9
70 10
70 11
70 12
70 13
70 14
70 15
70 16
70 17
70 33
70 49
70 50
70 51
70 52
70 53
70 54
70 61
70 63
70 65
70 66
70 67
71 1
71 2
71 17
71 18
71 19
71 20
71 21
71 22
71 23
71 24
71 25
71 26
71 27
71 28
71 29
71 30
71 31
71 32
71 34
71 35
71 36
71 60
71 69
72 1
72 2
72 17
72 18
72 19
72 20
72 21
72 22
72 23
72 24
72 25
72 26
72 27
72 28
72 29
72 30
72 31
72 32
72 60
72 69
72 71
73 1
73 2
73 17
73 18
73 19
73 20
73 21
73 22
73 23
73 24
73 25
73 26
73 27
73 28
73 29
73 30
73 31
73 32
73 60
73 69
73 71
74 1
74 2
74 17
74 18
74 19
74 20
74 21
74 22
74 23
74 24
74 25
74 26
74 27
74 28
74 29
74 30
74 31
74 32
74 60
74 69
74 71
74 73
75 1
75 2
75 17
75 18
75 19
75 20
75 21
75 22
75 23
75 24
75 25
75 26
75 27
75 28
75 29
75 30
75 31
75 32
75 60
75 71
76 1
76 2
76 17
76 18
76 19
76 20
76 21
76 22
76 23
76 24
76 25
76 26
76 27
76 28
76 29
76 30
76 31
76 32
76 60
76 71
77 1
77 2
77 17
77 18
77 19
77 20
77 21
77 22
77 23
77 24
77 25
77 26
77 27
77 28
77 29
77 30
77 31
77 32
77 60
77 71
78 1
78 2
78 17
78 18
78 19
78 20
78 21
78 22
78 23
78 24
78 25
78 26
78 27
78 28
78 29
78 30
78 31
78 32
78 60
78 71
78 77
79 1
79 2
79 17
79 18
79 19
79 20
79 21
79 22
79 23
79 24
79 25
79 26
79 27
79 28
79 29
79 30
79 31
79 32
79 60
79 71
79 77
79 78
80 1
80 2
80 17
80 18
80 19
80 20
80 21
80 22
80 23
80 24
80 25
80 26
80 27
80 28
80 29
80 30
80 31
80 32
80 60
80 71
80 77
80 78
80 79
81 1
81 2
81 17
81 18
81 19
81 20
81 21
81 22
81 23
81 24
81 25
81 26
81 27
81 28
81 29
81 30
81 31
81 32
81 60
81 71
81 77
81 78
81 79
81 80
82 1
82 2
82 17
82 18
82 19
82 20
82 21
82 22
82 23
82 24
82 25
82 26
82 27
82 28
82 29
82 30
82 31
82 32
82 60
82 71
82 78
82 79
82 80
82 81
83 1
83 2
83 17
83 18
83 19
83 20
83 21
83 22
83 23
83 24
83 25
83 26
83 27
83 28
83 29
83 30
83 31
83 32
83 34
83 35
83 36
83 60
83 71
83 78
83 79
83 80
83 81
83 82
84 1
84 2
84 17
84 18
84 19
84 20
84 21
84 22
84 23
84 24
84 25
84 26
84 27
84 28
84 29
84 30
84 31
84 32
84 60
84 71
84 79
84 80
84 81
84 82
84 83
85 1
85 2
85 17
85 18
85 19
85 20
85 21
85 22
85 23
85 24
85 25
85 26
85 27
85 28
85 29
85 30
85 31
85 32
85 34
85 35
85 36
85 60
85 71
85 80
85 81
85 82
85 83
85 84
86 1
86 2
86 17
86 18
86 19
86 20
86 21
86 22
86 23
86 24
86 25
86 26
86 27
86 28
86 29
86 30
86 31
86 32
86 34
86 35
86 36
86 60
86 71
86 81
86 82
86 83
86 84
86 85
87 1
87 2
87 17
87 18
87 19
87 20
87 21
87 22
87 23
87 24
87 25
87 26
87 27
87 28
87 29
87 30
87 31
87 32
87 60
87 71
87 81
87 82
87 83
87 85
87 86
88 1
88 2
88 17
88 18
88 19
88 20
88 21
88 22
88 23
88 24
88 25
88 26
88 27
88 28
88 29
88 30
88 31
88 32
88 60
88 71
88 82
88 83
88 85
88 86
88 87
89 1
89 2
89 17
89 18
89 19
89 20
89 21
89 22
89 23
89 24
89 25
89 26
89 27
89 28
89 29
89 30
89 31
89 32
89 34
89 35
89 36
89 60
89 71
89 82
89 83
89 85
89 86
89 87
89 88
90 1
90 2
90 17
90 18
90 19
90 20
90 21
90 22
90 23
90 24
90 25
90 26
90 27
90 28
90 29
90 30
90 31
90 32
90 34
90 35
90 36
90 60
90 71
90 83
90 85
90 86
90 87
90 88
90 89
91 1
91 2
91 17
91 18
91 19
91 20
91 21
91 22
91 23
91 24
91 25
91 26
91 27
91 28
91 29
91 30
91 31
91 32
91 60
91 71
91 83
91 85
91 86
91 87
91 88
91 89
91 90
92 1
92 2
92 17
92 18
92 19
92 20
92 21
92 22
92 23
92 24
92 25
92 26
92 27
92 28
92 29
92 30
92 31
92 32
92 34
92 35
92 36
92 60
92 71
92 83
92 85
92 86
92 87
92 88
92 89
92 90
93 1
93 2
93 17
93 18
93 19
93 20
93 21
93 22
93 23
93 24
93 25
93 26
93 27
93 28
93 29
93 30
93 31
93 32
93 34
93 35
93 36
93 60
93 71
93 83
93 85
93 86
93 88
93 89
93 90
93 92
94 1
94 2
94 17
94 18
94 19
94 20
94 21
94 22
94 23
94 24
94 25
94 26
94 27
94 28
94 29
94 30
94 31
94 32
94 60
94 71
94 83
94 85
94 86
94 88
94 89
94 90
94 92
94 93
95 1
95 2
95 17
95 18
95 19
95 20
95 21
95 22
95 23
95 24
95 25
95 26
95 27
95 28
95 29
95 30
95 31
95 32
95 34
95 35
95 36
95 60
95 71
95 83
95 85
95 86
95 88
95 89
95 90
95 92
95 93
96 1
96 2
96 17
96 18
96 19
96 20
96 21
96 22
96 23
96 24
96 25
96 26
96 27
96 28
96 29
96 30
96 31
96 32
96 34
96 35
96 36
96 60
96 71
96 83
96 85
96 86
96 89
96 90
96 92
96 93
96 95
97 1
97 2
97 17
97 18
97 19
97 20
97 21
97 22
97 23
97 24
97 25
97 26
97 27
97 28
97 29
97 30
97 31
97 32
97 60
97 71
97 83
97 85
97 86
97 89
97 90
97 92
97 93
97 95
97 96
98 1
98 2
98 17
98 18
98 19
98 20
98 21
98 22
98 23
98 24
98 25
98 26
98 27
98 28
98 29
98 30
98 31
98 32
98 60
98 71
98 83
98 85
98 86
98 89
98 90
98 92
98 93
98 95
98 96
99 1
99 2
99 17
99 18
99 19
99 20
99 21
99 22
99 23
99 24
99 25
99 26
99 27
99 28
99 29
99 30
99 31
99 32
99 60
99 71
99 83
99 85
99 86
99 89
99 90
99 92
99 93
99 95
99 96
99 98
100 1
100 2
100 3
100 4
100 5
100 6
100 7
100 8
100 9
100 10
100 11
100 12
100 13
100 14
100 15
100 16
100 17
100 49
100 50
100 51
100 52
100 53
100 54
100 61
100 63
100 65
100 66
100 67
100 70
101 1
101 2
101 3
101 4
101 5
101 6
101 7
101 8
101 9
101 10
101 11
101 12
101 13
101 14
101 15
101 16
101 17
101 49
101 50
101 51
101 52
101 53
101 54
101 61
101 63
101 65
101 66
101 67
101 70
102 1
102 2
102 3
102 4
102 5
102 6
102 7
102 8
102 9
102 10
102 11
102 12
102 13
102 14
102 15
102 16
102 17
102 49
102 50
102 51
102 52
102 53
102 54
102 61
102 63
102 65
102 66
102 67
102 70
103 1
103 2
103 3
103 4
103 5
103 6
103 7
103 8
103 9
103 10
103 11
103 12
103 13
103 14
103 15
103 16
103 17
103 49
103 50
103 51
103 52
103 53
103 54
103 61
103 63
103 65
103 66
103 67
103 70
104 1
104 2
104 3
104 4
104 5
104 6
104 7
104 8
104 9
104 10
104 11
104 12
104 13
104 14
104 15
104 16
104 17
104 49
104 50
104 51
104 52
104 53
104 54
104 61
104 63
104 65
104 66
104 67
104 70
105 1
105 2
105 3
105 4
105 5
105 6
105 7
105 8
105 9
105 10
105 11
105 12
105 13
105 14
105 15
105 16
105 17
105 49
105 50
105 51
105 52
105 53
105 54
105 61
105 63
105 65
105 66
105 67
105 70
106 1
106 2
106 3
106 4
106 5
106 6
106 7
106 8
106 9
106 10
106 11
106 12
106 13
106 14
106 15
106 16
106 17
106 49
106 50
106 51
106 52
106 53
106 54
106 61
106 63
106 65
106 66
106 67
106 70
107 1
107 2
107 3
107 4
107 5
107 6
107 7
107 8
107 9
107 10
107 11
107 12
107 13
107 14
107 15
107 16
107 17
107 33
107 49
107 50
107 51
107 52
107 53
107 54
107 61
107 63
107 65
107 66
107 67
107 70
109 1
109 2
109 17
109 18
109 19
109 20
109 21
109 22
109 23
109 24
109 25
109 26
109 27
109 28
109 29
109 30
109 31
109 32
109 60
109 71
109 83
109 85
109 86
109 89
109 90
109 92
109 93
109 95
109 96
110 1
110 2
110 17
110 18
110 19
110 20
110 21
110 22
110 23
110 24
110 25
110 26
110 27
110 28
110 29
110 30
110 31
110 32
110 60
110 71
110 83
110 85
110 86
110 89
110 90
110 92
110 93
110 95
110 96
110 109
111 1
111 2
111 3
111 4
111 5
111 6
111 7
111 8
111 9
111 10
111 11
111 12
111 13
111 14
111 15
111 16
111 17
111 33
111 49
111 50
111 51
111 52
111 53
111 54
111 61
111 63
111 65
111 66
111 67
111 70
112 1
112 2
112 3
112 4
112 5
112 6
112 7
112 8
112 9
112 10
112 11
112 12
112 13
112 14
112 15
112 16
112 17
112 49
112 50
112 51
112 52
112 53
112 54
112 61
112 63
112 65
112 66
112 67
112 70
113 1
113 2
113 17
113 18
113 19
113 20
113 21
113 22
113 23
113 24
113 25
113 26
113 27
113 28
113 29
113 30
113 31
113 32
113 60
113 71
113 83
113 85
113 86
113 89
113 90
113 92
113 93
113 95
113 96
114 1
114 2
114 17
114 18
114 19
114 20
114 21
114 22
114 23
114 24
114 25
114 26
114 27
114 28
114 29
114 30
114 31
114 32
114 60
114 71
114 83
114 85
114 86
114 89
114 90
114 92
114 93
114 95
114 96
114 113
115 1
115 2
115 17
115 18
115 19
115 20
115 21
115 22
115 23
115 24
115 25
115 26
115 27
115 28
115 29
115 30
115 31
115 32
115 60
115 71
115 83
115 85
115 86
115 89
115 90
115 92
115 93
115 95
115 96
115 113
115 114
116 1
116 2
116 17
116 18
116 19
116 20
116 21
116 22
116 23
116 24
116 25
116 26
116 27
116 28
116 29
116 30
116 31
116 32
116 60
116 71
116 83
116 85
116 86
116 89
116 90
116 92
116 93
116 95
116 96
116 113
116 114
116 115
117 1
117 2
117 3
117 4
117 5
117 6
117 7
117 8
117 9
117 10
117 11
117 12
117 13
117 14
117 15
117 16
117 17
117 49
117 50
117 51
117 52
117 53
117 54
117 61
117 63
117 65
117 66
117 67
117 70
118 1
118 2
118 3
118 4
118 5
118 6
118 7
118 8
118 9
118 10
118 11
118 12
118 13
118 14
118 15
118 16
118 17
118 49
118 50
118 51
118 52
118 53
118 54
118 61
118 63
118 65
118 66
118 67
118 70
118 117
119 1
119 2
119 17
119 18
119 19
119 20
119 21
119 22
119 23
119 24
119 25
119 26
119 27
119 28
119 29
119 30
119 31
119 32
119 60
119 71
119 83
119 85
119 86
119 89
119 90
119 92
119 93
119 95
119 96
119 114
119 116
120 1
120 2
120 3
120 4
120 5
120 6
120 7
120 8
120 9
120 10
120 11
120 12
120 13
120 14
120 15
120 16
120 17
120 49
120 50
120 51
120 52
120 53
120 54
120 61
120 63
120 65
120 66
120 67
120 70
121 1
121 2
121 17
121 18
121 19
121 20
121 21
121 22
121 23
121 24
121 25
121 26
121 27
121 28
121 29
121 30
121 31
121 32
121 60
121 71
121 83
121 85
121 86
121 89
121 90
121 92
121 93
121 95
121 96
122 1
122 2
122 17
122 18
122 19
122 20
122 21
122 22
122 23
122 24
122 25
122 26
122 27
122 28
122 29
122 30
122 31
122 32
122 60
122 71
122 83
122 85
122 86
122 89
122 90
122 92
122 93
122 95
122 96
123 1
123 2
123 17
123 18
123 19
123 20
123 21
123 22
123 23
123 24
123 25
123 26
123 27
123 28
123 29
123 30
123 31
123 32
123 60
123 71
123 83
123 85
123 86
123 89
123 90
123 92
123 93
123 95
123 96
123 122
124 1
124 2
124 17
124 18
124 19
124 20
124 21
124 22
124 23
124 24
124 25
124 26
124 27
124 28
124 29
124 30
124 31
124 32
124 60
124 71
124 83
124 85
124 86
124 89
124 90
124 92
124 93
124 95
124 96
125 1
125 2
125 17
125 18
125 19
125 20
125 21
125 22
125 23
125 24
125 25
125 26
125 27
125 28
125 29
125 30
125 31
125 32
127 1
127 2
127 17
127 18
127 19
127 20
127 21
127 22
127 23
127 24
127 25
127 26
127 27
127 28
127 29
127 30
127 31
127 32
127 34
127 60
127 71
127 83
127 85
127 86
127 89
127 90
127 92
127 93
127 95
127 96
128 1
128 2
128 3
128 4
128 5
128 6
128 7
128 8
128 9
128 10
128 11
128 12
128 13
128 14
128 15
128 16
128 17
128 49
128 50
128 51
128 52
128 53
128 54
128 61
128 63
128 65
128 66
128 67
128 70
129 1
129 2
129 17
129 18
129 19
129 20
129 21
129 22
129 23
129 24
129 25
129 26
129 27
129 28
129 29
129 30
129 31
129 32
129 34
129 60
129 71
129 83
129 85
129 86
129 89
129 90
129 92
129 93
129 95
129 96
129 127
130 1
130 2
130 3
130 4
130 5
130 6
130 7
130 8
130 9
130 10
130 11
130 12
130 13
130 14
130 15
130 16
130 17
130 49
130 50
130 51
130 52
130 53
130 54
130 61
130 63
130 65
130 66
130 67
130 70
130 128
131 1
131 2
131 17
131 18
131 19
131 20
131 21
131 22
131 23
131 24
131 25
131 26
131 27
131 28
131 29
131 30
131 31
131 32
131 34
131 60
131 71
131 83
131 85
131 86
131 89
131 90
131 92
131 93
131 95
131 96
131 127
132 1
132 2
132 3
132 4
132 5
132 6
132 7
132 8
132 9
132 10
132 11
132 12
132 13
132 14
132 15
132 16
132 17
132 49
132 50
132 51
132 52
132 53
132 54
132 61
132 63
132 65
132 66
132 67
132 70
132 128
132 130
133 1
133 2
133 3
133 4
133 5
133 6
133 7
133 8
133 9
133 10
133 11
133 12
133 13
133 14
133 15
133 16
133 17
133 49
133 50
133 51
133 52
133 53
133 54
133 61
133 63
133 65
133 66
133 67
133 70
133 128
134 1
134 2
134 3
134 4
134 5
134 6
134 7
134 8
134 9
134 10
134 11
134 12
134 13
134 14
134 15
134 16
134 17
134 49
134 50
134 51
134 52
134 53
134 54
134 61
134 63
134 65
134 66
134 67
134 70
135 1
135 2
135 17
135 18
135 19
135 20
135 21
135 22
135 23
135 24
135 25
135 26
135 27
135 28
135 29
135 30
135 31
135 32
135 34
135 60
135 71
135 83
135 85
135 86
135 89
135 90
135 92
135 93
135 95
135 96
135 127
136 1
136 2
136 3
136 4
136 5
136 6
136 7
136 8
136 9
136 10
136 11
136 12
136 13
136 14
136 15
136 16
136 17
136 49
136 50
136 51
136 52
136 53
136 54
136 61
136 63
136 65
136 66
136 67
136 70
136 134
137 1
137 2
137 3
137 4
137 5
137 6
137 7
137 8
137 9
137 10
137 11
137 12
137 13
137 14
137 15
137 16
137 17
137 49
137 50
137 51
137 52
137 53
137 54
137 61
137 63
137 65
137 66
137 67
137 70
139 1
139 2
139 17
139 18
139 19
139 20
139 21
139 22
139 23
139 24
139 25
139 26
139 27
139 28
139 29
139 30
139 31
139 32
139 34
139 60
139 71
139 83
139 85
139 86
139 89
139 90
139 92
139 93
139 95
139 96
141 1
141 2
141 3
141 4
141 5
141 6
141 7
141 8
141 9
141 10
141 11
141 12
141 13
141 14
141 15
141 16
141 17
141 49
141 50
141 51
141 52
141 53
141 54
141 61
141 63
141 65
141 66
141 67
141 70
142 1
142 2
142 3
142 4
142 5
142 6
142 7
142 8
142 9
142 10
142 11
142 12
142 13
142 14
142 15
142 16
142 17
142 49
142 50
142 51
142 52
142 53
142 54
142 61
142 63
142 65
142 66
142 67
142 70
142 141
143 1
143 2
143 3
143 4
143 5
143 6
143 7
143 8
143 9
143 10
143 11
143 12
143 13
143 14
143 15
143 16
143 17
143 49
143 50
143 51
143 52
143 53
143 54
143 61
143 63
143 65
143 66
143 67
143 70
143 141
143 142
144 1
144 2
144 3
144 4
144 5
144 6
144 7
144 8
144 9
144 10
144 11
144 12
144 13
144 14
144 15
144 16
144 17
144 49
144 50
144 51
144 52
144 53
144 54
144 61
144 63
144 65
144 66
144 67
144 70
144 141
145 1
145 2
145 3
145 4
145 5
145 6
145 7
145 8
145 9
145 10
145 11
145 12
145 13
145 14
145 15
145 16
145 17
145 49
145 50
145 51
145 52
145 53
145 54
145 61
145 63
145 65
145 66
145 67
145 70
146 1
146 2
146 3
146 4
146 5
146 6
146 7
146 8
146 9
146 10
146 11
146 12
146 13
146 14
146 15
146 16
146 17
146 49
146 50
146 51
146 52
146 53
146 54
146 61
146 63
146 65
146 66
146 67
146 70
146 145
147 1
147 2
147 3
147 4
147 5
147 6
147 7
147 8
147 9
147 10
147 11
147 12
147 13
147 14
147 15
147 16
147 17
147 49
147 50
147 51
147 52
147 53
147 54
147 61
147 63
147 65
147 66
147 67
147 70
149 1
149 2
149 17
149 18
149 19
149 20
149 21
149 22
149 23
149 24
149 25
149 26
149 27
149 28
149 29
149 30
149 31
149 32
149 36
149 60
149 71
149 83
149 85
149 86
149 89
149 90
149 92
149 93
149 95
149 96
151 1
151 2
151 3
151 4
151 5
151 6
151 7
151 8
151 9
151 10
151 11
151 12
151 13
151 14
151 15
151 16
151 17
151 49
151 50
151 51
151 52
151 53
151 54
151 61
151 63
151 65
151 66
151 67
151 70
151 107
152 1
152 2
152 3
152 4
152 5
152 6
152 7
152 8
152 9
152 10
152 11
152 12
152 13
152 14
152 15
152 16
152 17
152 49
152 50
152 51
152 52
152 53
152 54
152 61
152 63
152 65
152 66
152 67
152 70
152 107
153 1
153 2
153 3
153 4
153 5
153 6
153 7
153 8
153 9
153 10
153 11
153 12
153 13
153 14
153 15
153 16
153 17
153 49
153 50
153 51
153 52
153 53
153 54
153 61
153 63
153 65
153 66
153 67
153 70
153 107
154 1
154 2
154 3
154 4
154 5
154 6
154 7
154 8
154 9
154 10
154 11
154 12
154 13
154 14
154 15
154 16
154 17
154 49
154 50
154 51
154 52
154 53
154 54
154 61
154 63
154 65
154 66
154 67
154 70
154 107
155 1
155 2
155 3
155 4
155 5
155 6
155 7
155 8
155 9
155 10
155 11
155 12
155 13
155 14
155 15
155 16
155 17
155 49
155 50
155 51
155 52
155 53
155 54
155 61
155 63
155 65
155 66
155 67
155 70
155 107
157 1
157 2
157 17
157 18
157 19
157 20
157 21
157 22
157 23
157 24
157 25
157 26
157 27
157 28
157 29
157 30
157 31
157 32
157 35
157 60
157 71
157 83
157 85
157 86
157 89
157 90
157 92
157 93
157 95
157 96
159 1
159 2
159 17
159 18
159 19
159 20
159 21
159 22
159 23
159 24
159 25
159 26
159 27
159 28
159 29
159 30
159 31
159 32
160 1
160 2
160 17
160 18
160 19
160 20
160 21
160 22
160 23
160 24
160 25
160 26
160 27
160 28
160 29
160 30
160 31
160 32
160 159
161 1
161 2
161 3
161 4
161 5
161 6
161 7
161 8
161 9
161 10
161 11
161 12
161 13
161 14
161 15
161 16
161 17
161 19
161 20
161 21
161 22
161 23
161 24
161 25
161 26
161 49
161 50
161 51
161 52
161 53
161 54
162 1
162 2
162 3
162 4
162 5
162 6
162 7
162 8
162 9
162 10
162 11
162 12
162 13
162 14
162 15
162 16
162 17
162 20
162 21
162 22
162 23
162 24
162 25
162 26
162 49
162 50
162 51
162 52
162 53
162 54
162 161
163 1
163 2
163 3
163 4
163 5
163 6
163 7
163 8
163 9
163 10
163 11
163 12
163 13
163 14
163 15
163 16
163 17
163 21
163 22
163 23
163 24
163 25
163 26
163 49
163 50
163 51
163 52
163 53
163 54
163 161
163 162
164 1
164 2
164 17
164 18
164 19
164 20
164 21
164 22
164 23
164 24
164 25
164 26
164 27
164 28
164 29
164 30
164 31
164 32
165 1
165 2
165 17
165 18
165 19
165 20
165 21
165 22
165 23
165 24
165 25
165 26
165 27
165 28
165 29
165 30
165 31
165 32
165 164
166 1
166 2
166 17
166 18
166 19
166 20
166 21
166 22
166 23
166 24
166 25
166 26
166 27
166 28
166 29
166 30
166 31
166 32
167 1
167 2
167 16
167 17
167 18
167 19
167 20
167 21
167 22
167 23
167 24
167 25
167 26
167 27
167 28
167 29
167 30
167 31
167 32
167 166
168 1
168 2
168 10
168 16
168 17
168 18
168 19
168 20
168 21
168 22
168 23
168 24
168 25
168 26
168 27
168 28
168 29
168 30
168 31
168 32
168 166
168 167
169 1
169 2
169 9
169 10
169 16
169 17
169 18
169 19
169 20
169 21
169 22
169 23
169 24
169 25
169 26
169 27
169 28
169 29
169 30
169 31
169 32
169 166
169 167
169 168
170 1
170 2
170 8
170 9
170 10
170 16
170 17
170 18
170 19
170 20
170 21
170 22
170 23
170 24
170 25
170 26
170 27
170 28
170 29
170 30
170 31
170 32
170 166
170 167
170 168
170 169
171 1
171 2
171 7
171 8
171 9
171 10
171 16
171 17
171 18
171 19
171 20
171 21
171 22
171 23
171 24
171 25
171 26
171 27
171 28
171 29
171 30
171 31
171 32
171 166
171 167
171 168
171 169
171 170
172 1
172 2
172 6
172 7
172 8
172 9
172 10
172 16
172 17
172 18
172 19
172 20
172 21
172 22
172 23
172 24
172 25
172 26
172 27
172 28
172 29
172 30
172 31
172 32
172 166
172 167
172 168
172 169
172 170
172 171
173 1
173 2
173 5
173 6
173 7
173 8
173 9
173 10
173 16
173 17
173 18
173 19
173 20
173 21
173 22
173 23
173 24
173 25
173 26
173 27
173 28
173 29
173 30
173 31
173 32
173 166
173 167
173 168
173 169
173 170
173 171
173 172
174 1
174 2
174 17
174 18
174 19
174 20
174 21
174 22
174 23
174 24
174 25
174 26
174 27
174 28
174 29
174 30
174 31
174 32
175 1
175 2
175 17
175 18
175 19
175 20
175 21
175 22
175 23
175 24
175 25
175 26
175 27
175 28
175 29
175 30
175 31
175 32
175 174
176 1
176 2
176 17
176 18
176 19
176 20
176 21
176 22
176 23
176 24
176 25
176 26
176 27
176 28
176 29
176 30
176 31
176 32
176 37
176 175
177 1
177 2
177 17
177 18
177 19
177 20
177 21
177 22
177 23
177 24
177 25
177 26
177 27
177 28
177 29
177 30
177 31
177 32
177 37
177 176
179 1
179 2
179 3
179 4
179 5
179 6
179 7
179 8
179 9
179 10
179 11
179 12
179 13
179 14
179 15
179 16
179 17
179 49
179 50
179 51
179 52
179 53
179 54
180 1
180 2
180 3
180 4
180 5
180 6
180 7
180 8
180 9
180 10
180 11
180 12
180 13
180 14
180 15
180 16
180 17
180 49
180 50
180 51
180 52
180 53
180 54
182 1
182 2
182 17
182 18
182 19
182 20
182 21
182 22
182 23
182 24
182 25
182 26
182 27
182 28
182 29
182 30
182 31
182 32
182 37
182 176
182 177
183 1
183 2
183 17
183 18
183 19
183 20
183 21
183 22
183 23
183 24
183 25
183 26
183 27
183 28
183 29
183 30
183 31
183 32
184 1
184 2
184 17
184 18
184 19
184 20
184 21
184 22
184 23
184 24
184 25
184 26
184 27
184 28
184 29
184 30
184 31
184 32
31